SAT
76 25 96 62 -80 -39 16 88 75 79 24 70 -52 -97 -9 -2 -87 27 85 -56 63 89 40 -98 34 60 3 99 15 59 21 -50 -10 -57 -73 4 28 7 -64 -30 83 -69 41 -42 35 66 -5 -20 -81 -38 -54 -13 -58 -37 -53 91 -100 36 65 -55 -71 -95 43 -51 -6 -94 14 -45 -47 -93 33 -68 -12 -11 -44 67 -22 -17 -1 -32 -18 -19 -86 -78 -49 46 26 -77 23 -84 29 74 90 -61 -72 31 -92 8 -48 82 0
